100 2484
124 248 217 93 368 155 644 368 276 460 62 310 155 552 736 552 62 276 248 276 310 248 828 248 552 276 92 155 920 276 248 62 828 217 460 828 736 184 276 736 644 460 828 124 248 217 828 279 920 184 92 248 279 124 310 644 736 552 736 248 155 184 186 920 552 828 92 62 276 644 736 276 93 155 155 62 155 644 217 920 920 93 310 460 93 276 92 552 92 460 217 248 552 31 155 736 155 184 124 184 
332 664 581 249 372 415 651 372 279 465 166 830 415 558 744 558 166 279 664 279 830 664 837 664 558 279 93 415 930 279 664 166 837 581 465 837 744 186 279 744 651 465 837 332 664 581 837 747 930 186 93 664 747 332 830 651 744 558 744 664 415 186 498 930 558 837 93 166 279 651 744 279 249 415 415 166 415 651 581 930 930 249 830 465 249 279 93 558 93 465 581 664 558 83 415 744 415 186 332 186 
